180	32	4	69	
10	10	10	10

0	0	0	0	0	0	19	1	3	7	8	16	17	18	19	20	21	22	23	24	25	26	27	28	29	30
1	1	0	1	1	1	2	15	2
2	5	0	3	5	7	1	4
3	8	0	3	3	8	4	14	13	10	9
4	5	1	3	0	2	2	10	5
5	3	6	4	0	4	1	6
6	4	0	6	5	1	1	9
7	6	3	6	0	3	1	12
8	6	3	0	6	9	1	11
9	0	10	6	3	3	1	31
10	1	3	3	0	6	1	31
11	0	3	2	3	10	1	31
12	5	4	2	0	9	1	31
13	7	0	5	2	10	1	31
14	2	0	6	6	2	1	31
15	2	8	0	6	6	1	31
16	0	3	2	8	5	1	31
17	3	5	7	0	7	1	31
18	2	5	4	0	4	1	31
19	7	3	0	5	5	1	31
20	3	4	3	0	7	1	31
21	0	4	2	4	7	1	31
22	6	0	5	3	10	1	31
23	0	3	3	3	3	1	31
24	0	3	7	2	10	1	31
25	5	0	6	4	6	1	31
26	0	6	4	4	9	1	31
27	4	3	4	0	5	1	31
28	1	3	0	1	4	1	31
29	3	1	0	5	7	1	31
30	3	0	3	5	10	1	31
31	0	0	0	0	0	0
